<number of tasks>
58

<cycle time>
104

<task times>
1 10
2 53
3 41
4 36
5 35
6 17
7 34
8 23
9 14
10 52
11 33
12 34
13 12
14 52
15 12
16 33
17 44
18 7
19 15
20 13
21 29
22 37
23 43
24 23
25 24
26 9
27 16
28 12
29 26
30 22
31 51
32 47
33 34
34 23
35 12
36 52
37 12
38 33
39 44
40 7
41 15
42 13
43 29
44 37
45 43
46 23
47 24
48 9
49 16
50 12
51 26
52 12
53 52
54 12
55 33
56 44
57 7
58 15

<precedence relations>
1,9
2,25
3,21
3,22
4,10
5,36
6,23
6,24
7,43
8,44
9,11
11,13
11,14
11,15
12,17
13,17
14,17
15,17
16,18
17,20
18,19
19,23
20,21
20,25
21,26
21,44
22,27
23,31
24,31
25,38
26,29
27,30
28,32
28,33
29,31
30,34
31,36
32,45
33,35
34,36
35,43
36,37
36,38
37,39
37,40
37,41
38,52
39,43
40,43
41,42
42,43
43,45
44,45
45,46
45,48
45,49
46,47
46,50
47,51
48,55
49,58
50,58
51,52
52,53
53,54
54,55
54,56
55,57
56,57
57,58

<setup times forward>
1,2:15
1,3:8
1,4:9
1,5:8
1,6:8
1,7:5
1,8:11
1,10:9
1,12:8
1,18:11
1,19:5
1,22:6
1,23:5
1,24:6
1,27:12
1,28:8
1,30:12
1,33:8
1,34:12
1,35:17
2,1:15
2,3:7
2,4:6
2,5:7
2,6:7
2,7:10
2,8:4
2,9:15
2,10:6
2,11:4
2,12:7
2,13:10
2,14:4
2,15:4
2,16:15
2,17:9
2,18:4
2,19:10
2,20:3
2,21:3
2,22:9
2,23:10
2,24:9
2,25:12
2,26:7
2,27:3
2,28:7
2,29:7
2,30:3
2,32:15
2,33:7
2,34:3
2,35:2
2,36:12
2,37:12
2,39:4
2,40:2
2,41:12
2,42:2
2,43:2
2,44:4
2,45:2
2,46:9
2,47:9
2,48:9
2,49:6
2,50:9
2,51:13
3,1:8
3,2:7
3,4:1
3,7:3
3,8:3
3,9:8
3,10:1
3,11:3
3,13:3
3,14:3
3,15:3
3,16:8
3,17:2
3,18:3
3,19:3
3,20:4
3,21:4
3,22:2
3,23:3
3,24:2
3,25:5
3,32:8
3,35:9
4,1:9
4,2:6
4,3:1
4,5:1
4,6:1
4,7:4
4,8:2
4,9:9
4,11:2
4,12:1
4,13:4
4,14:2
4,15:2
4,16:9
4,17:3
4,18:2
4,19:4
4,20:3
4,21:3
4,22:3
4,23:4
4,24:3
4,25:6
4,26:1
4,27:3
4,28:1
4,29:1
4,30:3
4,31:6
4,32:9
4,33:1
4,34:3
4,35:8
4,36:6
4,37:6
4,38:3
4,39:2
4,40:8
4,41:6
4,42:8
4,43:8
4,44:2
4,45:8
4,46:3
4,47:3
4,48:3
4,50:3
4,51:7
4,52:7
4,53:7
4,54:7
4,55:9
4,56:9
4,57:9
4,58:9
5,1:8
5,2:7
5,4:1
5,7:3
5,8:3
5,9:8
5,10:1
5,11:3
5,13:3
5,14:3
5,15:3
5,16:8
5,17:2
5,18:3
5,19:3
5,20:4
5,21:4
5,22:2
5,23:3
5,24:2
5,25:5
5,27:4
5,30:4
5,31:7
5,32:8
5,34:4
5,35:9
5,36:5
5,44:3
6,1:8
6,2:7
6,4:1
6,7:3
6,8:3
6,9:8
6,10:1
6,11:3
6,13:3
6,14:3
6,15:3
6,16:8
6,17:2
6,18:3
6,19:3
6,20:4
6,21:4
6,22:2
6,23:3
6,24:2
6,25:5
6,27:4
6,30:4
6,32:8
6,34:4
6,35:9
6,44:3
7,1:5
7,2:10
7,3:3
7,4:4
7,5:3
7,6:3
7,8:6
7,9:5
7,10:4
7,11:6
7,12:3
7,14:6
7,15:6
7,16:5
7,17:1
7,18:6
7,20:7
7,21:7
7,22:1
7,24:1
7,25:2
7,26:3
7,27:7
7,28:3
7,29:3
7,30:7
7,31:10
7,32:5
7,33:3
7,34:7
7,35:12
7,36:2
7,37:2
7,38:1
7,39:6
7,40:12
7,41:2
7,42:12
7,43:12
7,44:6
8,1:11
8,2:4
8,3:3
8,4:2
8,5:3
8,6:3
8,7:6
8,9:11
8,10:2
8,12:3
8,13:6
8,16:11
8,17:5
8,19:6
8,20:1
8,21:1
8,22:5
8,23:6
8,24:5
8,25:8
8,26:3
8,27:1
8,28:3
8,29:3
8,30:1
8,31:4
8,32:11
8,33:3
8,34:1
8,35:6
8,36:8
8,37:8
8,38:5
8,40:6
8,41:8
8,42:6
8,43:6
9,2:15
9,3:8
9,4:9
9,5:8
9,6:8
9,7:5
9,8:11
9,10:9
9,11:11
9,12:8
9,18:11
9,19:5
9,22:6
9,23:5
9,24:6
9,27:12
9,28:8
9,30:12
9,33:8
9,34:12
9,35:17
10,1:9
10,2:6
10,3:1
10,5:1
10,6:1
10,7:4
10,8:2
10,9:9
10,11:2
10,12:1
10,13:4
10,14:2
10,15:2
10,16:9
10,17:3
10,18:2
10,19:4
10,20:3
10,21:3
10,22:3
10,23:4
10,24:3
10,25:6
10,26:1
10,27:3
10,28:1
10,29:1
10,30:3
10,31:6
10,32:9
10,33:1
10,34:3
10,35:8
10,36:6
10,37:6
10,38:3
10,39:2
10,40:8
10,41:6
10,42:8
10,43:8
10,44:2
10,45:8
10,46:3
10,47:3
10,48:3
10,50:3
10,51:7
10,52:7
10,53:7
10,54:7
10,55:9
10,56:9
10,57:9
10,58:9
11,2:4
11,3:3
11,4:2
11,5:3
11,6:3
11,7:6
11,10:2
11,12:3
11,13:6
11,16:11
11,19:6
11,22:5
11,23:6
11,24:5
11,27:1
11,28:3
11,30:1
11,32:11
11,33:3
11,34:1
11,35:6
12,1:8
12,2:7
12,4:1
12,7:3
12,8:3
12,9:8
12,10:1
12,11:3
12,13:3
12,14:3
12,15:3
12,16:8
12,17:2
12,18:3
12,19:3
12,22:2
12,23:3
12,24:2
12,27:4
12,30:4
12,32:8
12,34:4
12,35:9
13,2:10
13,3:3
13,4:4
13,5:3
13,6:3
13,8:6
13,10:4
13,12:3
13,14:6
13,15:6
13,16:5
13,17:1
13,18:6
13,22:1
13,24:1
13,27:7
13,28:3
13,30:7
13,32:5
13,33:3
13,34:7
13,35:12
14,2:4
14,3:3
14,4:2
14,5:3
14,6:3
14,7:6
14,10:2
14,12:3
14,13:6
14,16:11
14,17:5
14,19:6
14,22:5
14,23:6
14,24:5
14,27:1
14,28:3
14,30:1
14,32:11
14,33:3
14,34:1
14,35:6
15,2:4
15,3:3
15,4:2
15,5:3
15,6:3
15,7:6
15,10:2
15,12:3
15,13:6
15,16:11
15,17:5
15,19:6
15,22:5
15,23:6
15,24:5
15,27:1
15,28:3
15,30:1
15,32:11
15,33:3
15,34:1
15,35:6
16,2:15
16,3:8
16,4:9
16,5:8
16,6:8
16,7:5
16,8:11
16,10:9
16,11:11
16,12:8
16,13:5
16,14:11
16,15:11
16,17:6
16,18:11
16,20:12
16,21:12
16,22:6
16,24:6
16,25:3
16,26:8
16,27:12
16,28:8
16,29:8
16,30:12
16,33:8
16,34:12
16,35:17
16,44:11
17,2:9
17,3:2
17,4:3
17,5:2
17,6:2
17,7:1
17,8:5
17,10:3
17,16:6
17,18:5
17,19:1
17,20:6
17,23:1
17,27:6
17,28:2
17,30:6
17,32:6
17,33:2
17,34:6
17,35:11
18,1:11
18,2:4
18,3:3
18,4:2
18,5:3
18,6:3
18,7:6
18,9:11
18,10:2
18,12:3
18,13:6
18,17:5
18,19:6
18,20:1
18,21:1
18,22:5
18,24:5
18,25:8
18,26:3
18,27:1
18,28:3
18,29:3
18,30:1
18,32:11
18,33:3
18,34:1
18,35:6
19,1:5
19,2:10
19,3:3
19,4:4
19,5:3
19,6:3
19,8:6
19,9:5
19,10:4
19,11:6
19,12:3
19,14:6
19,15:6
19,17:1
19,20:7
19,21:7
19,22:1
19,24:1
19,25:2
19,26:3
19,27:7
19,28:3
19,29:3
19,30:7
19,32:5
19,33:3
19,34:7
19,35:12
19,44:6
20,2:3
20,3:4
20,4:3
20,5:4
20,6:4
20,7:7
20,8:1
20,10:3
20,16:12
20,18:1
20,19:7
20,22:6
20,23:7
20,24:6
20,25:9
20,28:4
20,32:12
20,33:4
20,35:5
21,2:3
21,4:3
21,5:4
21,6:4
21,7:7
21,8:1
21,10:3
21,16:12
21,18:1
21,19:7
21,22:6
21,23:7
21,24:6
21,25:9
21,26:4
21,28:4
21,32:12
21,33:4
21,35:5
21,44:1
22,1:6
22,2:9
22,4:3
22,5:2
22,6:2
22,7:1
22,8:5
22,9:6
22,10:3
22,11:5
22,12:2
22,13:1
22,14:5
22,15:5
22,16:6
22,18:5
22,19:1
22,20:6
22,21:6
22,23:1
22,25:3
22,26:2
22,27:6
22,28:2
22,29:2
22,31:9
22,32:6
22,33:2
22,35:11
22,44:5
23,1:5
23,2:10
23,3:3
23,4:4
23,5:3
23,8:6
23,9:5
23,10:4
23,11:6
23,12:3
23,14:6
23,15:6
23,17:1
23,20:7
23,21:7
23,22:1
23,24:1
23,25:2
23,26:3
23,27:7
23,28:3
23,29:3
23,30:7
23,31:10
23,32:5
23,33:3
23,34:7
23,35:12
23,44:6
24,1:6
24,2:9
24,3:2
24,4:3
24,5:2
24,7:1
24,8:5
24,9:6
24,10:3
24,11:5
24,12:2
24,13:1
24,14:5
24,15:5
24,16:6
24,18:5
24,19:1
24,20:6
24,21:6
24,23:1
24,25:3
24,26:2
24,27:6
24,28:2
24,29:2
24,30:6
24,31:9
24,32:6
24,33:2
24,34:6
24,35:11
24,44:5
25,3:5
25,4:6
25,5:5
25,6:5
25,7:2
25,8:8
25,10:6
25,16:3
25,18:8
25,19:2
25,21:9
25,22:3
25,23:2
25,24:3
25,26:5
25,27:9
25,28:5
25,29:5
25,30:9
25,31:12
25,32:3
25,33:5
25,34:9
25,35:14
25,38:3
25,39:8
25,40:14
25,42:14
25,43:14
25,44:8
25,45:14
25,46:3
25,47:3
25,48:3
25,49:6
25,50:3
25,51:1
26,2:7
26,4:1
26,7:3
26,8:3
26,10:1
26,16:8
26,18:3
26,19:3
26,22:2
26,23:3
26,24:2
26,25:5
26,27:4
26,30:4
26,32:8
26,34:4
26,35:9
26,44:3
27,1:12
27,2:3
27,4:3
27,5:4
27,6:4
27,7:7
27,8:1
27,9:12
27,10:3
27,11:1
27,12:4
27,13:7
27,14:1
27,15:1
27,16:12
27,17:6
27,18:1
27,19:7
27,23:7
27,24:6
27,25:9
27,26:4
27,28:4
27,29:4
27,31:3
27,32:12
27,33:4
27,35:5
27,44:1
28,1:8
28,2:7
28,4:1
28,7:3
28,8:3
28,9:8
28,10:1
28,11:3
28,13:3
28,14:3
28,15:3
28,16:8
28,17:2
28,18:3
28,19:3
28,20:4
28,21:4
28,22:2
28,23:3
28,24:2
28,25:5
28,27:4
28,30:4
28,31:7
28,32:8
28,34:4
28,36:5
28,37:5
28,38:2
28,39:3
28,40:9
28,41:5
28,42:9
28,44:3
29,2:7
29,4:1
29,7:3
29,8:3
29,10:1
29,16:8
29,18:3
29,19:3
29,22:2
29,23:3
29,24:2
29,25:5
29,27:4
29,30:4
29,31:7
29,32:8
29,34:4
29,35:9
29,44:3
30,1:12
30,2:3
30,4:3
30,5:4
30,6:4
30,7:7
30,8:1
30,9:12
30,10:3
30,11:1
30,12:4
30,13:7
30,14:1
30,15:1
30,16:12
30,17:6
30,18:1
30,19:7
30,23:7
30,24:6
30,25:9
30,26:4
30,28:4
30,29:4
30,31:3
30,32:12
30,33:4
30,35:5
30,44:1
31,4:6
31,5:7
31,7:10
31,8:4
31,10:6
31,22:9
31,25:12
31,27:3
31,28:7
31,30:3
31,32:15
31,33:7
31,34:3
31,35:2
31,36:12
31,44:4
32,2:15
32,3:8
32,4:9
32,5:8
32,6:8
32,7:5
32,8:11
32,10:9
32,11:11
32,12:8
32,13:5
32,14:11
32,15:11
32,17:6
32,18:11
32,19:5
32,20:12
32,21:12
32,22:6
32,23:5
32,24:6
32,25:3
32,26:8
32,27:12
32,29:8
32,30:12
32,31:15
32,33:8
32,34:12
32,35:17
32,36:3
32,37:3
32,38:6
32,39:11
32,40:17
32,41:3
32,42:17
32,43:17
32,44:11
32,45:17
33,1:8
33,2:7
33,4:1
33,7:3
33,8:3
33,9:8
33,10:1
33,11:3
33,13:3
33,14:3
33,15:3
33,16:8
33,17:2
33,18:3
33,19:3
33,20:4
33,21:4
33,22:2
33,23:3
33,24:2
33,25:5
33,27:4
33,30:4
33,31:7
33,32:8
33,34:4
33,35:9
33,36:5
33,37:5
33,38:2
33,39:3
33,40:9
33,41:5
33,42:9
33,44:3
34,1:12
34,2:3
34,4:3
34,5:4
34,6:4
34,7:7
34,8:1
34,9:12
34,10:3
34,11:1
34,12:4
34,13:7
34,14:1
34,15:1
34,16:12
34,17:6
34,18:1
34,19:7
34,23:7
34,24:6
34,25:9
34,26:4
34,28:4
34,29:4
34,31:3
34,32:12
34,33:4
34,35:5
34,36:9
34,44:1
35,1:17
35,2:2
35,3:9
35,4:8
35,5:9
35,6:9
35,7:12
35,8:6
35,9:17
35,10:8
35,11:6
35,12:9
35,13:12
35,14:6
35,15:6
35,16:17
35,17:11
35,18:6
35,19:12
35,20:5
35,21:5
35,22:11
35,23:12
35,24:11
35,25:14
35,26:9
35,27:5
35,29:9
35,30:5
35,31:2
35,32:17
35,34:5
35,36:14
35,37:14
35,38:11
35,39:6
35,41:14
35,44:6
36,2:12
36,4:6
36,7:2
36,8:8
36,10:6
36,28:5
36,32:3
36,33:5
36,35:14
36,38:3
36,44:8
37,2:12
37,4:6
37,7:2
37,8:8
37,10:6
37,28:5
37,32:3
37,33:5
37,35:14
37,38:3
37,39:8
37,40:14
37,44:8
38,4:3
38,7:1
38,8:5
38,10:3
38,28:2
38,32:6
38,33:2
38,35:11
38,37:3
38,39:5
38,40:11
38,41:3
38,42:11
38,43:11
38,44:5
38,45:11
38,49:3
38,51:4
38,52:4
39,2:4
39,4:2
39,7:6
39,10:2
39,25:8
39,28:3
39,32:11
39,33:3
39,35:6
39,38:5
39,40:6
39,41:8
39,42:6
39,43:6
40,2:2
40,4:8
40,7:12
40,8:6
40,10:8
40,25:14
40,28:9
40,32:17
40,33:9
40,38:11
40,39:6
40,41:14
40,44:6
41,2:12
41,4:6
41,7:2
41,8:8
41,10:6
41,28:5
41,32:3
41,33:5
41,35:14
41,38:3
41,39:8
41,40:14
41,42:14
41,44:8
42,2:2
42,4:8
42,7:12
42,8:6
42,10:8
42,25:14
42,28:9
42,32:17
42,33:9
42,38:11
42,39:6
42,44:6
43,2:2
43,4:8
43,8:6
43,10:8
43,25:14
43,32:17
43,38:11
43,44:6
44,2:4
44,4:2
44,5:3
44,6:3
44,7:6
44,10:2
44,16:11
44,19:6
44,22:5
44,23:6
44,24:5
44,25:8
44,26:3
44,27:1
44,28:3
44,29:3
44,30:1
44,31:4
44,32:11
44,33:3
44,34:1
44,35:6
44,36:8
44,37:8
44,38:5
44,40:6
44,41:8
44,42:6
44,43:6
44,45:6
45,2:2
45,4:8
45,10:8
45,25:14
45,38:11
45,46:11
45,48:11
45,49:8
46,2:9
46,4:3
46,10:3
46,25:3
46,49:3
47,2:9
47,4:3
47,10:3
47,25:3
47,49:3
47,51:4
48,2:9
48,4:3
48,10:3
48,25:3
48,49:3
48,51:4
48,52:4
48,53:4
48,54:4
48,55:12
48,56:12
49,2:6
49,25:6
49,38:3
49,46:3
49,47:3
49,48:3
49,50:3
49,51:7
49,52:7
49,53:7
49,54:7
49,55:9
49,56:9
49,57:9
49,58:9
50,2:9
50,4:3
50,10:3
50,25:3
50,49:3
50,51:4
50,52:4
50,53:4
50,54:4
50,55:12
50,56:12
50,57:12
50,58:12
51,2:13
51,4:7
51,10:7
51,25:1
51,38:4
51,48:4
51,49:7
51,50:4
52,4:7
52,10:7
52,48:4
52,49:7
52,50:4
53,4:7
53,10:7
53,48:4
53,49:7
53,50:4
54,4:7
54,10:7
54,48:4
54,49:7
54,50:4
54,55:16
54,56:16
55,4:9
55,10:9
55,49:9
55,50:12
56,4:9
56,10:9
56,48:12
56,49:9
56,50:12
57,4:9
57,10:9
57,49:9
57,50:12
58,4:9
58,10:9

<setup times backward>
1,2:15
1,3:8
1,4:9
1,5:8
1,6:8
1,7:5
1,8:11
1,10:9
1,12:8
1,18:11
1,19:5
1,22:6
1,23:5
1,24:6
1,27:12
1,28:8
1,30:12
1,33:8
1,34:12
1,35:17
2,35:2
2,40:2
2,42:2
2,43:2
2,45:2
3,2:7
3,4:1
3,8:3
3,10:1
3,11:3
3,14:3
3,15:3
3,18:3
3,20:4
3,35:9
4,2:6
4,8:2
4,11:2
4,14:2
4,15:2
4,18:2
4,20:3
4,21:3
4,27:3
4,30:3
4,31:6
4,34:3
4,35:8
4,39:2
4,40:8
4,42:8
4,43:8
4,44:2
4,45:8
4,55:9
4,56:9
4,57:9
4,58:9
5,2:7
5,4:1
5,8:3
5,10:1
5,11:3
5,14:3
5,15:3
5,18:3
5,20:4
5,21:4
5,27:4
5,30:4
5,31:7
5,34:4
5,35:9
5,44:3
6,2:7
6,4:1
6,8:3
6,10:1
6,11:3
6,14:3
6,15:3
6,18:3
6,20:4
6,21:4
6,27:4
6,30:4
6,34:4
6,35:9
6,44:3
7,2:10
7,3:3
7,4:4
7,5:3
7,6:3
7,8:6
7,10:4
7,11:6
7,12:3
7,14:6
7,15:6
7,17:1
7,18:6
7,20:7
7,21:7
7,22:1
7,24:1
7,26:3
7,27:7
7,28:3
7,29:3
7,30:7
7,31:10
7,33:3
7,34:7
7,35:12
7,38:1
7,39:6
7,40:12
7,42:12
7,44:6
8,2:4
8,20:1
8,21:1
8,27:1
8,30:1
8,31:4
8,34:1
8,35:6
8,40:6
8,42:6
8,43:6
9,2:15
9,3:8
9,4:9
9,5:8
9,6:8
9,7:5
9,8:11
9,10:9
9,12:8
9,18:11
9,19:5
9,22:6
9,23:5
9,24:6
9,27:12
9,28:8
9,30:12
9,33:8
9,34:12
9,35:17
10,2:6
10,8:2
10,11:2
10,14:2
10,15:2
10,18:2
10,20:3
10,21:3
10,27:3
10,30:3
10,31:6
10,34:3
10,35:8
10,39:2
10,40:8
10,42:8
10,43:8
10,44:2
10,45:8
10,55:9
10,56:9
10,57:9
10,58:9
11,2:4
11,27:1
11,30:1
11,34:1
11,35:6
12,2:7
12,4:1
12,8:3
12,10:1
12,11:3
12,14:3
12,15:3
12,18:3
12,27:4
12,30:4
12,34:4
12,35:9
13,2:10
13,3:3
13,4:4
13,5:3
13,6:3
13,8:6
13,10:4
13,11:6
13,12:3
13,14:6
13,15:6
13,18:6
13,22:1
13,24:1
13,27:7
13,28:3
13,30:7
13,33:3
13,34:7
13,35:12
14,2:4
14,27:1
14,30:1
14,34:1
14,35:6
15,2:4
15,27:1
15,30:1
15,34:1
15,35:6
16,2:15
16,3:8
16,4:9
16,5:8
16,6:8
16,7:5
16,8:11
16,10:9
16,11:11
16,12:8
16,13:5
16,14:11
16,15:11
16,17:6
16,20:12
16,21:12
16,22:6
16,24:6
16,25:3
16,26:8
16,27:12
16,28:8
16,29:8
16,30:12
16,33:8
16,34:12
16,35:17
16,44:11
17,2:9
17,3:2
17,4:3
17,5:2
17,6:2
17,8:5
17,10:3
17,11:5
17,12:2
17,14:5
17,15:5
17,18:5
17,27:6
17,28:2
17,30:6
17,33:2
17,34:6
17,35:11
18,2:4
18,20:1
18,21:1
18,27:1
18,30:1
18,34:1
18,35:6
19,2:10
19,3:3
19,4:4
19,5:3
19,6:3
19,8:6
19,10:4
19,11:6
19,12:3
19,14:6
19,15:6
19,17:1
19,18:6
19,20:7
19,21:7
19,22:1
19,24:1
19,26:3
19,27:7
19,28:3
19,29:3
19,30:7
19,33:3
19,34:7
19,35:12
19,44:6
20,2:3
20,35:5
21,2:3
21,35:5
22,2:9
22,3:2
22,4:3
22,5:2
22,6:2
22,8:5
22,10:3
22,11:5
22,12:2
22,14:5
22,15:5
22,18:5
22,20:6
22,21:6
22,26:2
22,28:2
22,29:2
22,31:9
22,33:2
22,35:11
22,44:5
23,2:10
23,3:3
23,4:4
23,5:3
23,6:3
23,8:6
23,10:4
23,11:6
23,12:3
23,14:6
23,15:6
23,17:1
23,18:6
23,20:7
23,21:7
23,22:1
23,24:1
23,26:3
23,27:7
23,28:3
23,29:3
23,30:7
23,33:3
23,34:7
23,35:12
23,44:6
24,2:9
24,3:2
24,4:3
24,5:2
24,6:2
24,8:5
24,10:3
24,11:5
24,12:2
24,14:5
24,15:5
24,18:5
24,20:6
24,21:6
24,26:2
24,27:6
24,28:2
24,29:2
24,30:6
24,33:2
24,34:6
24,35:11
24,44:5
25,2:12
25,3:5
25,4:6
25,5:5
25,6:5
25,7:2
25,8:8
25,10:6
25,11:8
25,12:5
25,13:2
25,14:8
25,15:8
25,17:3
25,18:8
25,19:2
25,20:9
25,21:9
25,22:3
25,23:2
25,24:3
25,26:5
25,27:9
25,28:5
25,29:5
25,30:9
25,31:12
25,33:5
25,34:9
25,35:14
25,39:8
25,40:14
25,42:14
25,43:14
25,44:8
25,45:14
25,46:3
25,47:3
25,48:3
25,49:6
25,50:3
26,2:7
26,4:1
26,8:3
26,10:1
26,11:3
26,14:3
26,15:3
26,18:3
26,20:4
26,21:4
26,27:4
26,30:4
26,34:4
26,35:9
26,44:3
27,2:3
27,31:3
27,35:5
28,2:7
28,4:1
28,8:3
28,10:1
28,11:3
28,14:3
28,15:3
28,18:3
28,20:4
28,21:4
28,27:4
28,30:4
28,31:7
28,34:4
28,39:3
28,40:9
28,42:9
28,44:3
29,2:7
29,4:1
29,8:3
29,10:1
29,11:3
29,14:3
29,15:3
29,18:3
29,20:4
29,21:4
29,27:4
29,30:4
29,34:4
29,35:9
29,44:3
30,2:3
30,31:3
30,35:5
31,35:2
32,2:15
32,3:8
32,4:9
32,5:8
32,6:8
32,7:5
32,8:11
32,10:9
32,11:11
32,12:8
32,13:5
32,14:11
32,15:11
32,17:6
32,18:11
32,19:5
32,20:12
32,21:12
32,22:6
32,23:5
32,24:6
32,25:3
32,26:8
32,27:12
32,28:8
32,29:8
32,30:12
32,31:15
32,33:8
32,34:12
32,35:17
32,36:3
32,37:3
32,38:6
32,39:11
32,40:17
32,41:3
32,42:17
32,43:17
32,44:11
33,2:7
33,4:1
33,8:3
33,10:1
33,11:3
33,14:3
33,15:3
33,18:3
33,20:4
33,21:4
33,27:4
33,30:4
33,31:7
33,34:4
33,39:3
33,40:9
33,42:9
33,44:3
34,2:3
34,31:3
34,35:5
36,2:12
36,3:5
36,4:6
36,5:5
36,6:5
36,7:2
36,8:8
36,10:6
36,11:8
36,12:5
36,13:2
36,14:8
36,15:8
36,17:3
36,18:8
36,19:2
36,20:9
36,21:9
36,22:3
36,23:2
36,24:3
36,26:5
36,27:9
36,28:5
36,29:5
36,30:9
36,31:12
36,33:5
36,34:9
36,35:14
36,44:8
37,2:12
37,3:5
37,4:6
37,5:5
37,6:5
37,7:2
37,8:8
37,10:6
37,11:8
37,12:5
37,13:2
37,14:8
37,15:8
37,17:3
37,18:8
37,19:2
37,20:9
37,21:9
37,22:3
37,23:2
37,24:3
37,26:5
37,27:9
37,28:5
37,29:5
37,30:9
37,31:12
37,33:5
37,34:9
37,35:14
37,38:3
37,44:8
38,2:9
38,3:2
38,4:3
38,5:2
38,6:2
38,8:5
38,10:3
38,11:5
38,12:2
38,14:5
38,15:5
38,18:5
38,20:6
38,21:6
38,26:2
38,27:6
38,28:2
38,29:2
38,30:6
38,31:9
38,33:2
38,34:6
38,35:11
38,39:5
38,40:11
38,42:11
38,43:11
38,44:5
38,45:11
38,49:3
39,2:4
39,20:1
39,21:1
39,27:1
39,30:1
39,31:4
39,34:1
39,35:6
39,40:6
39,42:6
41,2:12
41,3:5
41,4:6
41,5:5
41,6:5
41,7:2
41,8:8
41,10:6
41,11:8
41,12:5
41,13:2
41,14:8
41,15:8
41,17:3
41,18:8
41,19:2
41,20:9
41,21:9
41,22:3
41,23:2
41,24:3
41,26:5
41,27:9
41,28:5
41,29:5
41,30:9
41,31:12
41,33:5
41,34:9
41,35:14
41,38:3
41,39:8
41,40:14
41,44:8
44,2:4
44,20:1
44,21:1
44,27:1
44,30:1
44,31:4
44,34:1
44,35:6
44,40:6
44,42:6
44,43:6
46,2:9
46,3:2
46,4:3
46,5:2
46,6:2
46,8:5
46,10:3
46,11:5
46,12:2
46,14:5
46,15:5
46,18:5
46,20:6
46,21:6
46,26:2
46,27:6
46,28:2
46,29:2
46,30:6
46,31:9
46,33:2
46,34:6
46,35:11
46,39:5
46,40:11
46,42:11
46,43:11
46,44:5
46,45:11
46,49:3
47,2:9
47,3:2
47,4:3
47,5:2
47,6:2
47,8:5
47,10:3
47,11:5
47,12:2
47,14:5
47,15:5
47,18:5
47,20:6
47,21:6
47,26:2
47,27:6
47,28:2
47,29:2
47,30:6
47,31:9
47,33:2
47,34:6
47,35:11
47,39:5
47,40:11
47,42:11
47,43:11
47,44:5
47,45:11
47,49:3
48,2:9
48,3:2
48,4:3
48,5:2
48,6:2
48,8:5
48,10:3
48,11:5
48,12:2
48,14:5
48,15:5
48,18:5
48,20:6
48,21:6
48,26:2
48,27:6
48,28:2
48,29:2
48,30:6
48,31:9
48,33:2
48,34:6
48,35:11
48,39:5
48,40:11
48,42:11
48,43:11
48,44:5
48,45:11
48,49:3
48,56:12
49,2:6
49,8:2
49,11:2
49,14:2
49,15:2
49,18:2
49,20:3
49,21:3
49,27:3
49,30:3
49,31:6
49,34:3
49,35:8
49,39:2
49,40:8
49,42:8
49,43:8
49,44:2
49,45:8
49,55:9
49,56:9
49,57:9
50,2:9
50,3:2
50,4:3
50,5:2
50,6:2
50,8:5
50,10:3
50,11:5
50,12:2
50,14:5
50,15:5
50,18:5
50,20:6
50,21:6
50,26:2
50,27:6
50,28:2
50,29:2
50,30:6
50,31:9
50,33:2
50,34:6
50,35:11
50,39:5
50,40:11
50,42:11
50,43:11
50,44:5
50,45:11
50,49:3
50,55:12
50,56:12
50,57:12
51,2:13
51,3:6
51,4:7
51,5:6
51,6:6
51,7:3
51,8:9
51,10:7
51,11:9
51,12:6
51,13:3
51,14:9
51,15:9
51,17:4
51,18:9
51,19:3
51,20:10
51,21:10
51,22:4
51,23:3
51,24:4
51,25:1
51,26:6
51,27:10
51,28:6
51,29:6
51,30:10
51,31:13
51,33:6
51,34:10
51,35:15
51,36:1
51,37:1
51,38:4
51,39:9
51,40:15
51,41:1
51,42:15
51,43:15
51,44:9
51,45:15
51,46:4
51,47:4
51,48:4
51,49:7
51,50:4
52,2:13
52,3:6
52,4:7
52,5:6
52,6:6
52,7:3
52,8:9
52,10:7
52,11:9
52,12:6
52,13:3
52,14:9
52,15:9
52,17:4
52,18:9
52,19:3
52,20:10
52,21:10
52,22:4
52,23:3
52,24:4
52,25:1
52,26:6
52,27:10
52,28:6
52,29:6
52,30:10
52,31:13
52,33:6
52,34:10
52,35:15
52,36:1
52,37:1
52,38:4
52,39:9
52,40:15
52,41:1
52,42:15
52,43:15
52,44:9
52,45:15
52,46:4
52,47:4
52,48:4
52,49:7
52,50:4
53,2:13
53,3:6
53,4:7
53,5:6
53,6:6
53,7:3
53,8:9
53,10:7
53,11:9
53,12:6
53,13:3
53,14:9
53,15:9
53,17:4
53,18:9
53,19:3
53,20:10
53,21:10
53,22:4
53,23:3
53,24:4
53,25:1
53,26:6
53,27:10
53,28:6
53,29:6
53,30:10
53,31:13
53,33:6
53,34:10
53,35:15
53,36:1
53,37:1
53,38:4
53,39:9
53,40:15
53,41:1
53,42:15
53,43:15
53,44:9
53,45:15
53,46:4
53,47:4
53,48:4
53,49:7
53,50:4
54,2:13
54,3:6
54,4:7
54,5:6
54,6:6
54,7:3
54,8:9
54,10:7
54,11:9
54,12:6
54,13:3
54,14:9
54,15:9
54,17:4
54,18:9
54,19:3
54,20:10
54,21:10
54,22:4
54,23:3
54,24:4
54,25:1
54,26:6
54,27:10
54,28:6
54,29:6
54,30:10
54,31:13
54,33:6
54,34:10
54,35:15
54,36:1
54,37:1
54,38:4
54,39:9
54,40:15
54,41:1
54,42:15
54,43:15
54,44:9
54,45:15
54,46:4
54,47:4
54,48:4
54,49:7
54,50:4

<end>

<optimal SALBP-1 value>
15


<rand seed>
467321153

